Maximize
F - f1 - f2

Subject to
F - 6y26 - 6y30 - 6y37 - 8y53 - 2y128 - 6y148 - 4y159 - 2y120 - 8y48 - 6y57 - 6y129 - 6y172 - 4y124 - 6y100 - 6y175 - 8y8 - 8y158 - 8y44 - 6y125 = 0
f1 - 0.007349s26 - 0.007349s30 - 0.007349s37 - 0.007349s53 - 0.007349s128 - 0.007349s148 - 0.007349s159 - 0.007349s120 - 0.007349s48 - 0.007349s57 - 0.007349s129 - 0.007349s172 - 0.007349s124 - 0.007349s100 - 0.007349s175 - 0.007349s8 - 0.007349s158 - 0.007349s44 - 0.007349s125  = 0
f2 - 3.02y26 - 2.43y30 - 3.05y37 - 3.47y53 - 3.12y128 - 2.34y148 - 3.41y159 - 2.49y120 - 2.55y48 - 1.80y57 - 1.71y129 - 1.85y172 - 1.78y124 - 1.72y100 - 1.83y175 - 1.99y8 - 1.38y158 - 1.75y44 - 1.11y125 = 0

x122x44x1 
<= 1
x95x172x1 + x95x44x1 
<= 1
x23x53x1 + x23x128x1 + x23x148x1 + x23x159x1 + x23x172x1 + x23x44x1 
<= 1
x34x53x1 + x34x128x1 + x34x148x1 + x34x159x1 + x34x172x1 + x34x44x1 
<= 1
x146x128x1 + x146x148x1 + x146x159x1 + x146x172x1 + x146x44x1 
<= 1
x86x128x1 + x86x148x1 + x86x159x1 + x86x172x1 + x86x44x1 
<= 1
x132x53x1 + x132x128x1 + x132x148x1 + x132x159x1 + x132x172x1 + x132x44x1 
<= 1
x182x53x1 + x182x128x1 + x182x148x1 + x182x159x1 + x182x172x1 + x182x44x1 
<= 1

x14x30x2 + x14x37x2 + x14x120x2 + x14x48x2 + x14x57x2 + x14x129x2 + x14x124x2 + x14x100x2 + x14x175x2 + x14x8x2 + x14x158x2 + x14x44x2 
<= 1
x2x30x2 + x2x37x2 + x2x120x2 + x2x48x2 + x2x57x2 + x2x129x2 + x2x124x2 + x2x100x2 + x2x175x2 + x2x8x2 + x2x158x2 + x2x44x2 
<= 1
x177x30x2 + x177x37x2 + x177x120x2 + x177x48x2 + x177x57x2 + x177x129x2 + x177x124x2 + x177x100x2 + x177x175x2 + x177x8x2 + x177x158x2 + x177x44x2 
<= 2
x4x30x2 + x4x37x2 + x4x120x2 + x4x48x2 + x4x57x2 + x4x129x2 + x4x124x2 + x4x100x2 + x4x175x2 + x4x8x2 + x4x158x2 + x4x44x2 
<= 1
x23x30x2 + x23x37x2 + x23x120x2 + x23x48x2 + x23x57x2 + x23x129x2 + x23x124x2 + x23x100x2 + x23x175x2 + x23x8x2 + x23x158x2 + x23x44x2 
<= 1
x146x30x2 + x146x37x2 + x146x120x2 + x146x48x2 + x146x57x2 + x146x129x2 + x146x124x2 + x146x100x2 + x146x175x2 + x146x8x2 + x146x158x2 + x146x44x2 
<= 1
x86x30x2 + x86x37x2 + x86x120x2 + x86x48x2 + x86x57x2 + x86x129x2 + x86x124x2 + x86x100x2 + x86x175x2 + x86x8x2 + x86x158x2 + x86x44x2 
<= 1
x122x158x3 + x122x125x3 
<= 1
x95x57x3 + x95x172x3 + x95x175x3 + x95x158x3 + x95x125x3 
<= 1
x2x26x3 + x2x30x3 + x2x37x3 + x2x148x3 + x2x159x3 + x2x57x3 + x2x172x3 + x2x175x3 + x2x158x3 + x2x125x3 
<= 1
x34x26x3 + x34x30x3 + x34x37x3 + x34x148x3 + x34x159x3 + x34x57x3 + x34x172x3 + x34x175x3 + x34x158x3 + x34x125x3 
<= 1
x19x26x3 + x19x30x3 + x19x37x3 + x19x148x3 + x19x159x3 + x19x57x3 + x19x172x3 + x19x175x3 + x19x158x3 + x19x125x3 
<= 2
x132x26x3 + x132x30x3 + x132x37x3 + x132x148x3 + x132x159x3 + x132x57x3 + x132x172x3 + x132x175x3 + x132x158x3 + x132x125x3 
<= 1
x182x26x3 + x182x30x3 + x182x37x3 + x182x148x3 + x182x159x3 + x182x57x3 + x182x172x3 + x182x175x3 + x182x158x3 + x182x125x3 
<= 1



x2x26x3 + x34x26x3 + x19x26x3 + x132x26x3 + x182x26x3 
- x26x0x3
- x26x57x3 - x26x172x3 - x26x175x3 - x26x158x3 - x26x125x3 
= 0


x14x30x2 + x2x30x2 + x177x30x2 + x4x30x2 + x23x30x2 + x146x30x2 + x86x30x2 
- x30x0x2
- x30x48x2 - x30x57x2 - x30x129x2 - x30x124x2 - x30x100x2 - x30x175x2 - x30x8x2 - x30x158x2 - x30x44x2 
= 0
x2x30x3 + x34x30x3 + x19x30x3 + x132x30x3 + x182x30x3 
- x30x0x3
- x30x57x3 - x30x172x3 - x30x175x3 - x30x158x3 - x30x125x3 
= 0


x14x37x2 + x2x37x2 + x177x37x2 + x4x37x2 + x23x37x2 + x146x37x2 + x86x37x2 
- x37x0x2
- x37x48x2 - x37x57x2 - x37x129x2 - x37x124x2 - x37x100x2 - x37x175x2 - x37x8x2 - x37x158x2 - x37x44x2 
= 0
x2x37x3 + x34x37x3 + x19x37x3 + x132x37x3 + x182x37x3 
- x37x0x3
- x37x57x3 - x37x172x3 - x37x175x3 - x37x158x3 - x37x125x3 
= 0

x23x53x1 + x34x53x1 + x132x53x1 + x182x53x1 
- x53x0x1
- x53x172x1 - x53x44x1 
= 0



x23x128x1 + x34x128x1 + x146x128x1 + x86x128x1 + x132x128x1 + x182x128x1 
- x128x0x1
- x128x172x1 - x128x44x1 
= 0



x23x148x1 + x34x148x1 + x146x148x1 + x86x148x1 + x132x148x1 + x182x148x1 
- x148x0x1
- x148x172x1 - x148x44x1 
= 0

x2x148x3 + x34x148x3 + x19x148x3 + x132x148x3 + x182x148x3 
- x148x0x3
- x148x57x3 - x148x172x3 - x148x175x3 - x148x158x3 - x148x125x3 
= 0

x23x159x1 + x34x159x1 + x146x159x1 + x86x159x1 + x132x159x1 + x182x159x1 
- x159x0x1
- x159x172x1 - x159x44x1 
= 0

x2x159x3 + x34x159x3 + x19x159x3 + x132x159x3 + x182x159x3 
- x159x0x3
- x159x57x3 - x159x172x3 - x159x175x3 - x159x158x3 - x159x125x3 
= 0


x14x120x2 + x2x120x2 + x177x120x2 + x4x120x2 + x23x120x2 + x146x120x2 + x86x120x2 
- x120x0x2
- x120x48x2 - x120x57x2 - x120x129x2 - x120x124x2 - x120x100x2 - x120x175x2 - x120x8x2 - x120x158x2 - x120x44x2 
= 0



x14x48x2 + x2x48x2 + x177x48x2 + x4x48x2 + x23x48x2 + x146x48x2 + x86x48x2 + x30x48x2 + x37x48x2 + x120x48x2 
- x48x0x2
- x48x175x2 - x48x8x2 - x48x158x2 - x48x44x2 
= 0



x14x57x2 + x2x57x2 + x177x57x2 + x4x57x2 + x23x57x2 + x146x57x2 + x86x57x2 + x30x57x2 + x37x57x2 + x120x57x2 
- x57x0x2
- x57x124x2 - x57x100x2 - x57x175x2 - x57x8x2 - x57x158x2 - x57x44x2 
= 0
x95x57x3 + x2x57x3 + x34x57x3 + x19x57x3 + x132x57x3 + x182x57x3 + x26x57x3 + x30x57x3 + x37x57x3 + x148x57x3 + x159x57x3 
- x57x0x3
- x57x172x3 - x57x175x3 - x57x158x3 - x57x125x3 
= 0


x14x129x2 + x2x129x2 + x177x129x2 + x4x129x2 + x23x129x2 + x146x129x2 + x86x129x2 + x30x129x2 + x37x129x2 + x120x129x2 
- x129x0x2
- x129x124x2 - x129x100x2 - x129x175x2 - x129x8x2 - x129x158x2 - x129x44x2 
= 0


x95x172x1 + x23x172x1 + x34x172x1 + x146x172x1 + x86x172x1 + x132x172x1 + x182x172x1 + x53x172x1 + x128x172x1 + x148x172x1 + x159x172x1 
- x172x0x1
- x172x44x1 
= 0

x95x172x3 + x2x172x3 + x34x172x3 + x19x172x3 + x132x172x3 + x182x172x3 + x26x172x3 + x30x172x3 + x37x172x3 + x148x172x3 + x159x172x3 + x57x172x3 
- x172x0x3
- x172x175x3 - x172x158x3 - x172x125x3 
= 0


x14x124x2 + x2x124x2 + x177x124x2 + x4x124x2 + x23x124x2 + x146x124x2 + x86x124x2 + x30x124x2 + x37x124x2 + x120x124x2 + x57x124x2 + x129x124x2 
- x124x0x2
- x124x100x2 - x124x175x2 - x124x8x2 - x124x158x2 - x124x44x2 
= 0



x14x100x2 + x2x100x2 + x177x100x2 + x4x100x2 + x23x100x2 + x146x100x2 + x86x100x2 + x30x100x2 + x37x100x2 + x120x100x2 + x57x100x2 + x129x100x2 + x124x100x2 
- x100x0x2
- x100x175x2 - x100x8x2 - x100x158x2 - x100x44x2 
= 0



x14x175x2 + x2x175x2 + x177x175x2 + x4x175x2 + x23x175x2 + x146x175x2 + x86x175x2 + x30x175x2 + x37x175x2 + x120x175x2 + x48x175x2 + x57x175x2 + x129x175x2 + x124x175x2 + x100x175x2 
- x175x0x2
- x175x44x2 
= 0
x95x175x3 + x2x175x3 + x34x175x3 + x19x175x3 + x132x175x3 + x182x175x3 + x26x175x3 + x30x175x3 + x37x175x3 + x148x175x3 + x159x175x3 + x57x175x3 + x172x175x3 
- x175x0x3
- x175x125x3 
= 0


x14x8x2 + x2x8x2 + x177x8x2 + x4x8x2 + x23x8x2 + x146x8x2 + x86x8x2 + x30x8x2 + x37x8x2 + x120x8x2 + x48x8x2 + x57x8x2 + x129x8x2 + x124x8x2 + x100x8x2 
- x8x0x2
- x8x44x2 
= 0



x14x158x2 + x2x158x2 + x177x158x2 + x4x158x2 + x23x158x2 + x146x158x2 + x86x158x2 + x30x158x2 + x37x158x2 + x120x158x2 + x48x158x2 + x57x158x2 + x129x158x2 + x124x158x2 + x100x158x2 
- x158x0x2

= 0
x122x158x3 + x95x158x3 + x2x158x3 + x34x158x3 + x19x158x3 + x132x158x3 + x182x158x3 + x26x158x3 + x30x158x3 + x37x158x3 + x148x158x3 + x159x158x3 + x57x158x3 + x172x158x3 
- x158x0x3
- x158x125x3 
= 0

x122x44x1 + x95x44x1 + x23x44x1 + x34x44x1 + x146x44x1 + x86x44x1 + x132x44x1 + x182x44x1 + x53x44x1 + x128x44x1 + x148x44x1 + x159x44x1 + x172x44x1 
- x44x0x1

= 0
x14x44x2 + x2x44x2 + x177x44x2 + x4x44x2 + x23x44x2 + x146x44x2 + x86x44x2 + x30x44x2 + x37x44x2 + x120x44x2 + x48x44x2 + x57x44x2 + x129x44x2 + x124x44x2 + x100x44x2 + x175x44x2 + x8x44x2 
- x44x0x2

= 0




x122x125x3 + x95x125x3 + x2x125x3 + x34x125x3 + x19x125x3 + x132x125x3 + x182x125x3 + x26x125x3 + x30x125x3 + x37x125x3 + x148x125x3 + x159x125x3 + x57x125x3 + x172x125x3 + x175x125x3 + x158x125x3 
- x125x0x3

= 0

2y26 - x2x26x3 - x34x26x3 - x19x26x3 - x132x26x3 - x182x26x3 = 0
1y30 - x14x30x2 - x2x30x2 - x177x30x2 - x4x30x2 - x23x30x2 - x146x30x2 - x86x30x2 = 0
1y30 - x2x30x3 - x34x30x3 - x19x30x3 - x132x30x3 - x182x30x3 = 0
1y37 - x14x37x2 - x2x37x2 - x177x37x2 - x4x37x2 - x23x37x2 - x146x37x2 - x86x37x2 = 0
1y37 - x2x37x3 - x34x37x3 - x19x37x3 - x132x37x3 - x182x37x3 = 0
2y53 - x23x53x1 - x34x53x1 - x132x53x1 - x182x53x1 = 0
2y128 - x23x128x1 - x34x128x1 - x146x128x1 - x86x128x1 - x132x128x1 - x182x128x1 = 0
1y148 - x23x148x1 - x34x148x1 - x146x148x1 - x86x148x1 - x132x148x1 - x182x148x1 = 0
1y148 - x2x148x3 - x34x148x3 - x19x148x3 - x132x148x3 - x182x148x3 = 0
1y159 - x23x159x1 - x34x159x1 - x146x159x1 - x86x159x1 - x132x159x1 - x182x159x1 = 0
1y159 - x2x159x3 - x34x159x3 - x19x159x3 - x132x159x3 - x182x159x3 = 0
2y120 - x14x120x2 - x2x120x2 - x177x120x2 - x4x120x2 - x23x120x2 - x146x120x2 - x86x120x2 = 0
2y48 - x14x48x2 - x2x48x2 - x177x48x2 - x4x48x2 - x23x48x2 - x146x48x2 - x86x48x2 - x30x48x2 - x37x48x2 - x120x48x2 = 0
1y57 - x14x57x2 - x2x57x2 - x177x57x2 - x4x57x2 - x23x57x2 - x146x57x2 - x86x57x2 - x30x57x2 - x37x57x2 - x120x57x2 = 0
1y57 - x95x57x3 - x2x57x3 - x34x57x3 - x19x57x3 - x132x57x3 - x182x57x3 - x26x57x3 - x30x57x3 - x37x57x3 - x148x57x3 - x159x57x3 = 0
2y129 - x14x129x2 - x2x129x2 - x177x129x2 - x4x129x2 - x23x129x2 - x146x129x2 - x86x129x2 - x30x129x2 - x37x129x2 - x120x129x2 = 0
1y172 - x95x172x1 - x23x172x1 - x34x172x1 - x146x172x1 - x86x172x1 - x132x172x1 - x182x172x1 - x53x172x1 - x128x172x1 - x148x172x1 - x159x172x1 = 0
1y172 - x95x172x3 - x2x172x3 - x34x172x3 - x19x172x3 - x132x172x3 - x182x172x3 - x26x172x3 - x30x172x3 - x37x172x3 - x148x172x3 - x159x172x3 - x57x172x3 = 0
2y124 - x14x124x2 - x2x124x2 - x177x124x2 - x4x124x2 - x23x124x2 - x146x124x2 - x86x124x2 - x30x124x2 - x37x124x2 - x120x124x2 - x57x124x2 - x129x124x2 = 0
2y100 - x14x100x2 - x2x100x2 - x177x100x2 - x4x100x2 - x23x100x2 - x146x100x2 - x86x100x2 - x30x100x2 - x37x100x2 - x120x100x2 - x57x100x2 - x129x100x2 - x124x100x2 = 0
1y175 - x14x175x2 - x2x175x2 - x177x175x2 - x4x175x2 - x23x175x2 - x146x175x2 - x86x175x2 - x30x175x2 - x37x175x2 - x120x175x2 - x48x175x2 - x57x175x2 - x129x175x2 - x124x175x2 - x100x175x2 = 0
1y175 - x95x175x3 - x2x175x3 - x34x175x3 - x19x175x3 - x132x175x3 - x182x175x3 - x26x175x3 - x30x175x3 - x37x175x3 - x148x175x3 - x159x175x3 - x57x175x3 - x172x175x3 = 0
2y8 - x14x8x2 - x2x8x2 - x177x8x2 - x4x8x2 - x23x8x2 - x146x8x2 - x86x8x2 - x30x8x2 - x37x8x2 - x120x8x2 - x48x8x2 - x57x8x2 - x129x8x2 - x124x8x2 - x100x8x2 = 0
1y158 - x14x158x2 - x2x158x2 - x177x158x2 - x4x158x2 - x23x158x2 - x146x158x2 - x86x158x2 - x30x158x2 - x37x158x2 - x120x158x2 - x48x158x2 - x57x158x2 - x129x158x2 - x124x158x2 - x100x158x2 = 0
1y158 - x122x158x3 - x95x158x3 - x2x158x3 - x34x158x3 - x19x158x3 - x132x158x3 - x182x158x3 - x26x158x3 - x30x158x3 - x37x158x3 - x148x158x3 - x159x158x3 - x57x158x3 - x172x158x3 = 0
1y44 - x122x44x1 - x95x44x1 - x23x44x1 - x34x44x1 - x146x44x1 - x86x44x1 - x132x44x1 - x182x44x1 - x53x44x1 - x128x44x1 - x148x44x1 - x159x44x1 - x172x44x1 = 0
1y44 - x14x44x2 - x2x44x2 - x177x44x2 - x4x44x2 - x23x44x2 - x146x44x2 - x86x44x2 - x30x44x2 - x37x44x2 - x120x44x2 - x48x44x2 - x57x44x2 - x129x44x2 - x124x44x2 - x100x44x2 - x175x44x2 - x8x44x2 = 0
2y125 - x122x125x3 - x95x125x3 - x2x125x3 - x34x125x3 - x19x125x3 - x132x125x3 - x182x125x3 - x26x125x3 - x30x125x3 - x37x125x3 - x148x125x3 - x159x125x3 - x57x125x3 - x172x125x3 - x175x125x3 - x158x125x3 = 0

s122 - s158 + 7.376740z122z158z3 <= 5.98
s122 - s44 + 7.469287z122z44z1 <= 5.98
s122 - s125 + 7.484413z122z125z3 <= 5.98
s95 - s57 + 7.106603z95z57z3 <= 5.67
s95 - s172 + 7.133897z95z172z1 <= 5.67
s95 - s172 + 7.133897z95z172z3 <= 5.67
s95 - s175 + 7.148981z95z175z3 <= 5.67
s95 - s158 + 7.054823z95z158z3 <= 5.67
s95 - s44 + 7.158990z95z44z1 <= 5.67
s95 - s125 + 7.144506z95z125z3 <= 5.67
s14 - s30 + 5.327953z14z30z2 <= 3.96
s14 - s37 + 5.454131z14z37z2 <= 3.96
s14 - s120 + 5.501140z14z120z2 <= 3.96
s14 - s48 + 5.550220z14z48z2 <= 3.96
s14 - s57 + 5.569273z14z57z2 <= 3.96
s14 - s129 + 5.557113z14z129z2 <= 3.96
s14 - s124 + 5.587354z14z124z2 <= 3.96
s14 - s100 + 5.590056z14z100z2 <= 3.96
s14 - s175 + 5.606344z14z175z2 <= 3.96
s14 - s8 + 5.609105z14z8z2 <= 3.96
s14 - s158 + 5.580294z14z158z2 <= 3.96
s14 - s44 + 5.626971z14z44z2 <= 3.96
s2 - s26 + 6.407812z2z26z3 <= 4.82
s2 - s30 + 6.323554z2z30z2 <= 4.82
s2 - s30 + 6.323554z2z30z3 <= 4.82
s2 - s37 + 6.527581z2z37z2 <= 4.82
s2 - s37 + 6.527581z2z37z3 <= 4.82
s2 - s148 + 6.386971z2z148z3 <= 4.82
s2 - s159 + 6.526579z2z159z3 <= 4.82
s2 - s120 + 6.521706z2z120z2 <= 4.82
s2 - s48 + 6.578568z2z48z2 <= 4.82
s2 - s57 + 6.523973z2z57z2 <= 4.82
s2 - s57 + 6.523973z2z57z3 <= 4.82
s2 - s129 + 6.500175z2z129z2 <= 4.82
s2 - s172 + 6.550855z2z172z3 <= 4.82
s2 - s124 + 6.541862z2z124z2 <= 4.82
s2 - s100 + 6.538973z2z100z2 <= 4.82
s2 - s175 + 6.568695z2z175z2 <= 4.82
s2 - s175 + 6.568695z2z175z3 <= 4.82
s2 - s8 + 6.587045z2z8z2 <= 4.82
s2 - s158 + 6.490835z2z158z2 <= 4.82
s2 - s158 + 6.490835z2z158z3 <= 4.82
s2 - s44 + 6.583689z2z44z2 <= 4.82
s2 - s125 + 6.596230z2z125z3 <= 4.82
s177 - s30 + 6.137509z177z30z2 <= 4.81
s177 - s37 + 6.253382z177z37z2 <= 4.81
s177 - s120 + 6.303212z177z120z2 <= 4.81
s177 - s48 + 6.351151z177z48z2 <= 4.81
s177 - s57 + 6.375585z177z57z2 <= 4.81
s177 - s129 + 6.364697z177z129z2 <= 4.81
s177 - s124 + 6.393377z177z124z2 <= 4.81
s177 - s100 + 6.396519z177z100z2 <= 4.81
s177 - s175 + 6.411421z177z175z2 <= 4.81
s177 - s8 + 6.412910z177z8z2 <= 4.81
s177 - s158 + 6.390489z177z158z2 <= 4.81
s177 - s44 + 6.432220z177z44z2 <= 4.81
s4 - s30 + 6.167566z4z30z2 <= 4.77
s4 - s37 + 6.365371z4z37z2 <= 4.77
s4 - s120 + 6.369871z4z120z2 <= 4.77
s4 - s48 + 6.426721z4z48z2 <= 4.77
s4 - s57 + 6.387832z4z57z2 <= 4.77
s4 - s129 + 6.366154z4z129z2 <= 4.77
s4 - s124 + 6.406404z4z124z2 <= 4.77
s4 - s100 + 6.404865z4z100z2 <= 4.77
s4 - s175 + 6.432114z4z175z2 <= 4.77
s4 - s8 + 6.447117z4z8z2 <= 4.77
s4 - s158 + 6.365296z4z158z2 <= 4.77
s4 - s44 + 6.449018z4z44z2 <= 4.77
s23 - s30 + 6.164927z23z30z2 <= 4.86
s23 - s37 + 6.290771z23z37z2 <= 4.86
s23 - s53 + 6.230241z23z53z1 <= 4.86
s23 - s128 + 6.281876z23z128z1 <= 4.86
s23 - s148 + 6.229348z23z148z1 <= 4.86
s23 - s159 + 6.258112z23z159z1 <= 4.86
s23 - s120 + 6.336716z23z120z2 <= 4.86
s23 - s48 + 6.385988z23z48z2 <= 4.86
s23 - s57 + 6.405325z23z57z2 <= 4.86
s23 - s129 + 6.393533z23z129z2 <= 4.86
s23 - s172 + 6.423924z23z172z1 <= 4.86
s23 - s124 + 6.423337z23z124z2 <= 4.86
s23 - s100 + 6.426153z23z100z2 <= 4.86
s23 - s175 + 6.442123z23z175z2 <= 4.86
s23 - s8 + 6.444698z23z8z2 <= 4.86
s23 - s158 + 6.417701z23z158z2 <= 4.86
s23 - s44 + 6.462787z23z44z1 <= 4.86
s23 - s44 + 6.462787z23z44z2 <= 4.86
s34 - s26 + 6.299536z34z26z3 <= 4.79
s34 - s30 + 6.219817z34z30z3 <= 4.79
s34 - s37 + 6.421120z34z37z3 <= 4.79
s34 - s53 + 6.395137z34z53z1 <= 4.79
s34 - s128 + 6.418317z34z128z1 <= 4.79
s34 - s148 + 6.285688z34z148z1 <= 4.79
s34 - s148 + 6.285688z34z148z3 <= 4.79
s34 - s159 + 6.417263z34z159z1 <= 4.79
s34 - s159 + 6.417263z34z159z3 <= 4.79
s34 - s57 + 6.431489z34z57z3 <= 4.79
s34 - s172 + 6.457819z34z172z1 <= 4.79
s34 - s172 + 6.457819z34z172z3 <= 4.79
s34 - s175 + 6.476081z34z175z3 <= 4.79
s34 - s158 + 6.404182z34z158z3 <= 4.79
s34 - s44 + 6.492177z34z44z1 <= 4.79
s34 - s125 + 6.513674z34z125z3 <= 4.79
s19 - s26 + 6.443134z19z26z3 <= 4.87
s19 - s30 + 6.358379z19z30z3 <= 4.87
s19 - s37 + 6.562627z19z37z3 <= 4.87
s19 - s148 + 6.421607z19z148z3 <= 4.87
s19 - s159 + 6.562052z19z159z3 <= 4.87
s19 - s57 + 6.558367z19z57z3 <= 4.87
s19 - s172 + 6.585249z19z172z3 <= 4.87
s19 - s175 + 6.603088z19z175z3 <= 4.87
s19 - s158 + 6.525288z19z158z3 <= 4.87
s19 - s125 + 6.630811z19z125z3 <= 4.87
s146 - s30 + 6.441716z146z30z2 <= 4.92
s146 - s37 + 6.647627z146z37z2 <= 4.92
s146 - s128 + 6.646289z146z128z1 <= 4.92
s146 - s148 + 6.502327z146z148z1 <= 4.92
s146 - s159 + 6.650176z146z159z1 <= 4.92
s146 - s120 + 6.636138z146z120z2 <= 4.92
s146 - s48 + 6.692686z146z48z2 <= 4.92
s146 - s57 + 6.630931z146z57z2 <= 4.92
s146 - s129 + 6.606369z146z129z2 <= 4.92
s146 - s172 + 6.658130z146z172z1 <= 4.92
s146 - s124 + 6.648387z146z124z2 <= 4.92
s146 - s100 + 6.644917z146z100z2 <= 4.92
s146 - s175 + 6.675546z146z175z2 <= 4.92
s146 - s8 + 6.695315z146z8z2 <= 4.92
s146 - s158 + 6.593459z146z158z2 <= 4.92
s146 - s44 + 6.689588z146z44z1 <= 4.92
s146 - s44 + 6.689588z146z44z2 <= 4.92
s86 - s30 + 6.408190z86z30z2 <= 5.06
s86 - s37 + 6.606762z86z37z2 <= 5.06
s86 - s128 + 6.603528z86z128z1 <= 5.06
s86 - s148 + 6.475836z86z148z1 <= 5.06
s86 - s159 + 6.601254z86z159z1 <= 5.06
s86 - s120 + 6.610417z86z120z2 <= 5.06
s86 - s48 + 6.667278z86z48z2 <= 5.06
s86 - s57 + 6.628848z86z57z2 <= 5.06
s86 - s129 + 6.607367z86z129z2 <= 5.06
s86 - s172 + 6.654508z86z172z1 <= 5.06
s86 - s124 + 6.647456z86z124z2 <= 5.06
s86 - s100 + 6.646028z86z100z2 <= 5.06
s86 - s175 + 6.673061z86z175z2 <= 5.06
s86 - s8 + 6.687850z86z8z2 <= 5.06
s86 - s158 + 6.607407z86z158z2 <= 5.06
s86 - s44 + 6.690095z86z44z1 <= 5.06
s86 - s44 + 6.690095z86z44z2 <= 5.06
s132 - s26 + 6.411698z132z26z3 <= 5.01
s132 - s30 + 6.473315z132z30z3 <= 5.01
s132 - s37 + 6.472353z132z37z3 <= 5.01
s132 - s53 + 6.391277z132z53z1 <= 5.01
s132 - s128 + 6.459264z132z128z1 <= 5.01
s132 - s148 + 6.508627z132z148z1 <= 5.01
s132 - s148 + 6.508627z132z148z3 <= 5.01
s132 - s159 + 6.415065z132z159z1 <= 5.01
s132 - s159 + 6.415065z132z159z3 <= 5.01
s132 - s57 + 6.657786z132z57z3 <= 5.01
s132 - s172 + 6.665808z132z172z1 <= 5.01
s132 - s172 + 6.665808z132z172z3 <= 5.01
s132 - s175 + 6.680171z132z175z3 <= 5.01
s132 - s158 + 6.698641z132z158z3 <= 5.01
s132 - s44 + 6.700706z132z44z1 <= 5.01
s132 - s125 + 6.797731z132z125z3 <= 5.01
s182 - s26 + 6.367183z182z26z3 <= 5.00
s182 - s30 + 6.299946z182z30z3 <= 5.00
s182 - s37 + 6.491433z182z37z3 <= 5.00
s182 - s53 + 6.458438z182z53z1 <= 5.00
s182 - s128 + 6.487271z182z128z1 <= 5.00
s182 - s148 + 6.369823z182z148z1 <= 5.00
s182 - s148 + 6.369823z182z148z3 <= 5.00
s182 - s159 + 6.481881z182z159z1 <= 5.00
s182 - s159 + 6.481881z182z159z3 <= 5.00
s182 - s57 + 6.531808z182z57z3 <= 5.00
s182 - s172 + 6.556351z182z172z1 <= 5.00
s182 - s172 + 6.556351z182z172z3 <= 5.00
s182 - s175 + 6.575142z182z175z3 <= 5.00
s182 - s158 + 6.518014z182z158z3 <= 5.00
s182 - s44 + 6.593266z182z44z1 <= 5.00
s182 - s125 + 6.633220z182z125z3 <= 5.00
s26 - s57 + 7.791042z26z57z3 <= 6.54
s26 - s172 + 7.803734z26z172z3 <= 6.54
s26 - s175 + 7.820396z26z175z3 <= 6.54
s26 - s158 + 7.826977z26z158z3 <= 6.54
s26 - s125 + 7.929472z26z125z3 <= 6.54
s30 - s48 + 8.199401z30z48z2 <= 6.94
s30 - s57 + 8.184132z30z57z2 <= 6.94
s30 - s57 + 8.184132z30z57z3 <= 6.94
s30 - s129 + 8.169879z30z129z2 <= 6.94
s30 - s172 + 8.205498z30z172z3 <= 6.94
s30 - s124 + 8.202721z30z124z2 <= 6.94
s30 - s100 + 8.204407z30z100z2 <= 6.94
s30 - s175 + 8.224254z30z175z2 <= 6.94
s30 - s175 + 8.224254z30z175z3 <= 6.94
s30 - s8 + 8.232271z30z8z2 <= 6.94
s30 - s158 + 8.192982z30z158z2 <= 6.94
s30 - s158 + 8.192982z30z158z3 <= 6.94
s30 - s44 + 8.244047z30z44z2 <= 6.94
s30 - s125 + 8.307695z30z125z3 <= 6.94
s37 - s48 + 7.939950z37z48z2 <= 6.83
s37 - s57 + 8.034505z37z57z2 <= 6.83
s37 - s57 + 8.034505z37z57z3 <= 6.83
s37 - s129 + 8.044683z37z129z2 <= 6.83
s37 - s172 + 8.033960z37z172z3 <= 6.83
s37 - s124 + 8.043437z37z124z2 <= 6.83
s37 - s100 + 8.051610z37z100z2 <= 6.83
s37 - s175 + 8.044993z37z175z2 <= 6.83
s37 - s175 + 8.044993z37z175z3 <= 6.83
s37 - s8 + 8.030000z37z8z2 <= 6.83
s37 - s158 + 8.095497z37z158z2 <= 6.83
s37 - s158 + 8.095497z37z158z3 <= 6.83
s37 - s44 + 8.064189z37z44z2 <= 6.83
s37 - s125 + 8.169934z37z125z3 <= 6.83
s53 - s172 + 7.821267z53z172z1 <= 6.54
s53 - s44 + 7.853404z53z44z1 <= 6.54
s128 - s172 + 8.007051z128z172z1 <= 6.79
s128 - s44 + 8.037476z128z44z1 <= 6.79
s148 - s57 + 8.086131z148z57z3 <= 6.91
s148 - s172 + 8.106072z148z172z1 <= 6.91
s148 - s172 + 8.106072z148z172z3 <= 6.91
s148 - s175 + 8.124683z148z175z3 <= 6.91
s148 - s158 + 8.105164z148z158z3 <= 6.91
s148 - s44 + 8.144852z148z44z1 <= 6.91
s148 - s125 + 8.215868z148z125z3 <= 6.91
s159 - s57 + 7.923734z159z57z3 <= 6.66
s159 - s172 + 7.924155z159z172z1 <= 6.66
s159 - s172 + 7.924155z159z172z3 <= 6.66
s159 - s175 + 7.935358z159z175z3 <= 6.66
s159 - s158 + 7.982214z159z158z3 <= 6.66
s159 - s44 + 7.954543z159z44z1 <= 6.66
s159 - s125 + 8.060111z159z125z3 <= 6.66
s120 - s48 + 8.096960z120z48z2 <= 7.04
s120 - s57 + 8.153920z120z57z2 <= 7.04
s120 - s129 + 8.165787z120z129z2 <= 7.04
s120 - s124 + 8.162928z120z124z2 <= 7.04
s120 - s100 + 8.170979z120z100z2 <= 7.04
s120 - s175 + 8.166667z120z175z2 <= 7.04
s120 - s8 + 8.156428z120z8z2 <= 7.04
s120 - s158 + 8.217514z120z158z2 <= 7.04
s120 - s44 + 8.186818z120z44z2 <= 7.04
s48 - s175 + 8.389257z48z175z2 <= 7.27
s48 - s8 + 8.367068z48z8z2 <= 7.27
s48 - s158 + 8.468885z48z158z2 <= 7.27
s48 - s44 + 8.404989z48z44z2 <= 7.27
s57 - s172 + 8.357488z57z172z3 <= 7.33
s57 - s124 + 8.348856z57z124z2 <= 7.33
s57 - s100 + 8.351082z57z100z2 <= 7.33
s57 - s175 + 8.374722z57z175z2 <= 7.33
s57 - s175 + 8.374722z57z175z3 <= 7.33
s57 - s8 + 8.396999z57z8z2 <= 7.33
s57 - s158 + 8.402111z57z158z2 <= 7.33
s57 - s158 + 8.402111z57z158z3 <= 7.33
s57 - s44 + 8.391463z57z44z2 <= 7.33
s57 - s125 + 8.470000z57z125z3 <= 7.33
s129 - s124 + 8.372164z129z124z2 <= 7.33
s129 - s100 + 8.368873z129z100z2 <= 7.33
s129 - s175 + 8.399602z129z175z2 <= 7.33
s129 - s8 + 8.423571z129z8z2 <= 7.33
s129 - s158 + 8.382069z129z158z2 <= 7.33
s129 - s44 + 8.413533z129z44z2 <= 7.33
s172 - s175 + 8.398856z172z175z3 <= 7.38
s172 - s158 + 8.472857z172z158z3 <= 7.38
s172 - s44 + 8.418873z172z44z1 <= 7.38
s172 - s125 + 8.515974z172z125z3 <= 7.38
s124 - s100 + 8.399428z124z100z2 <= 7.39
s124 - s175 + 8.417487z124z175z2 <= 7.39
s124 - s8 + 8.443748z124z8z2 <= 7.39
s124 - s158 + 8.468031z124z158z2 <= 7.39
s124 - s44 + 8.432688z124z44z2 <= 7.39
s100 - s175 + 8.433333z100z175z2 <= 7.40
s100 - s8 + 8.461464z100z8z2 <= 7.40
s100 - s158 + 8.469603z100z158z2 <= 7.40
s100 - s44 + 8.444721z100z44z2 <= 7.40
s175 - s44 + 8.471082z175z44z2 <= 7.45
s175 - s125 + 8.576490z175z125z3 <= 7.45
s8 - s44 + 8.508873z8z44z2 <= 7.47
s158 - s125 + 8.596619z158z125z3 <= 7.48

x122x158x3 - 1z122z158z3 <= 0
x122x44x1 - 1z122z44z1 <= 0
x122x125x3 - 2z122z125z3 <= 0
x95x57x3 - 1z95z57z3 <= 0
x95x172x1 - 1z95z172z1 <= 0
x95x172x3 - 1z95z172z3 <= 0
x95x175x3 - 1z95z175z3 <= 0
x95x158x3 - 1z95z158z3 <= 0
x95x44x1 - 1z95z44z1 <= 0
x95x125x3 - 2z95z125z3 <= 0
x14x30x2 - 1z14z30z2 <= 0
x14x37x2 - 1z14z37z2 <= 0
x14x120x2 - 2z14z120z2 <= 0
x14x48x2 - 2z14z48z2 <= 0
x14x57x2 - 1z14z57z2 <= 0
x14x129x2 - 2z14z129z2 <= 0
x14x124x2 - 2z14z124z2 <= 0
x14x100x2 - 2z14z100z2 <= 0
x14x175x2 - 1z14z175z2 <= 0
x14x8x2 - 2z14z8z2 <= 0
x14x158x2 - 1z14z158z2 <= 0
x14x44x2 - 1z14z44z2 <= 0
x2x26x3 - 2z2z26z3 <= 0
x2x30x2 - 1z2z30z2 <= 0
x2x30x3 - 1z2z30z3 <= 0
x2x37x2 - 1z2z37z2 <= 0
x2x37x3 - 1z2z37z3 <= 0
x2x148x3 - 1z2z148z3 <= 0
x2x159x3 - 1z2z159z3 <= 0
x2x120x2 - 2z2z120z2 <= 0
x2x48x2 - 2z2z48z2 <= 0
x2x57x2 - 1z2z57z2 <= 0
x2x57x3 - 1z2z57z3 <= 0
x2x129x2 - 2z2z129z2 <= 0
x2x172x3 - 1z2z172z3 <= 0
x2x124x2 - 2z2z124z2 <= 0
x2x100x2 - 2z2z100z2 <= 0
x2x175x2 - 1z2z175z2 <= 0
x2x175x3 - 1z2z175z3 <= 0
x2x8x2 - 2z2z8z2 <= 0
x2x158x2 - 1z2z158z2 <= 0
x2x158x3 - 1z2z158z3 <= 0
x2x44x2 - 1z2z44z2 <= 0
x2x125x3 - 2z2z125z3 <= 0
x177x30x2 - 1z177z30z2 <= 0
x177x37x2 - 1z177z37z2 <= 0
x177x120x2 - 2z177z120z2 <= 0
x177x48x2 - 2z177z48z2 <= 0
x177x57x2 - 1z177z57z2 <= 0
x177x129x2 - 2z177z129z2 <= 0
x177x124x2 - 2z177z124z2 <= 0
x177x100x2 - 2z177z100z2 <= 0
x177x175x2 - 1z177z175z2 <= 0
x177x8x2 - 2z177z8z2 <= 0
x177x158x2 - 1z177z158z2 <= 0
x177x44x2 - 1z177z44z2 <= 0
x4x30x2 - 1z4z30z2 <= 0
x4x37x2 - 1z4z37z2 <= 0
x4x120x2 - 2z4z120z2 <= 0
x4x48x2 - 2z4z48z2 <= 0
x4x57x2 - 1z4z57z2 <= 0
x4x129x2 - 2z4z129z2 <= 0
x4x124x2 - 2z4z124z2 <= 0
x4x100x2 - 2z4z100z2 <= 0
x4x175x2 - 1z4z175z2 <= 0
x4x8x2 - 2z4z8z2 <= 0
x4x158x2 - 1z4z158z2 <= 0
x4x44x2 - 1z4z44z2 <= 0
x23x30x2 - 1z23z30z2 <= 0
x23x37x2 - 1z23z37z2 <= 0
x23x53x1 - 2z23z53z1 <= 0
x23x128x1 - 2z23z128z1 <= 0
x23x148x1 - 1z23z148z1 <= 0
x23x159x1 - 1z23z159z1 <= 0
x23x120x2 - 2z23z120z2 <= 0
x23x48x2 - 2z23z48z2 <= 0
x23x57x2 - 1z23z57z2 <= 0
x23x129x2 - 2z23z129z2 <= 0
x23x172x1 - 1z23z172z1 <= 0
x23x124x2 - 2z23z124z2 <= 0
x23x100x2 - 2z23z100z2 <= 0
x23x175x2 - 1z23z175z2 <= 0
x23x8x2 - 2z23z8z2 <= 0
x23x158x2 - 1z23z158z2 <= 0
x23x44x1 - 1z23z44z1 <= 0
x23x44x2 - 1z23z44z2 <= 0
x34x26x3 - 2z34z26z3 <= 0
x34x30x3 - 1z34z30z3 <= 0
x34x37x3 - 1z34z37z3 <= 0
x34x53x1 - 2z34z53z1 <= 0
x34x128x1 - 2z34z128z1 <= 0
x34x148x1 - 1z34z148z1 <= 0
x34x148x3 - 1z34z148z3 <= 0
x34x159x1 - 1z34z159z1 <= 0
x34x159x3 - 1z34z159z3 <= 0
x34x57x3 - 1z34z57z3 <= 0
x34x172x1 - 1z34z172z1 <= 0
x34x172x3 - 1z34z172z3 <= 0
x34x175x3 - 1z34z175z3 <= 0
x34x158x3 - 1z34z158z3 <= 0
x34x44x1 - 1z34z44z1 <= 0
x34x125x3 - 2z34z125z3 <= 0
x19x26x3 - 2z19z26z3 <= 0
x19x30x3 - 1z19z30z3 <= 0
x19x37x3 - 1z19z37z3 <= 0
x19x148x3 - 1z19z148z3 <= 0
x19x159x3 - 1z19z159z3 <= 0
x19x57x3 - 1z19z57z3 <= 0
x19x172x3 - 1z19z172z3 <= 0
x19x175x3 - 1z19z175z3 <= 0
x19x158x3 - 1z19z158z3 <= 0
x19x125x3 - 2z19z125z3 <= 0
x146x30x2 - 1z146z30z2 <= 0
x146x37x2 - 1z146z37z2 <= 0
x146x128x1 - 2z146z128z1 <= 0
x146x148x1 - 1z146z148z1 <= 0
x146x159x1 - 1z146z159z1 <= 0
x146x120x2 - 2z146z120z2 <= 0
x146x48x2 - 2z146z48z2 <= 0
x146x57x2 - 1z146z57z2 <= 0
x146x129x2 - 2z146z129z2 <= 0
x146x172x1 - 1z146z172z1 <= 0
x146x124x2 - 2z146z124z2 <= 0
x146x100x2 - 2z146z100z2 <= 0
x146x175x2 - 1z146z175z2 <= 0
x146x8x2 - 2z146z8z2 <= 0
x146x158x2 - 1z146z158z2 <= 0
x146x44x1 - 1z146z44z1 <= 0
x146x44x2 - 1z146z44z2 <= 0
x86x30x2 - 1z86z30z2 <= 0
x86x37x2 - 1z86z37z2 <= 0
x86x128x1 - 2z86z128z1 <= 0
x86x148x1 - 1z86z148z1 <= 0
x86x159x1 - 1z86z159z1 <= 0
x86x120x2 - 2z86z120z2 <= 0
x86x48x2 - 2z86z48z2 <= 0
x86x57x2 - 1z86z57z2 <= 0
x86x129x2 - 2z86z129z2 <= 0
x86x172x1 - 1z86z172z1 <= 0
x86x124x2 - 2z86z124z2 <= 0
x86x100x2 - 2z86z100z2 <= 0
x86x175x2 - 1z86z175z2 <= 0
x86x8x2 - 2z86z8z2 <= 0
x86x158x2 - 1z86z158z2 <= 0
x86x44x1 - 1z86z44z1 <= 0
x86x44x2 - 1z86z44z2 <= 0
x132x26x3 - 2z132z26z3 <= 0
x132x30x3 - 1z132z30z3 <= 0
x132x37x3 - 1z132z37z3 <= 0
x132x53x1 - 2z132z53z1 <= 0
x132x128x1 - 2z132z128z1 <= 0
x132x148x1 - 1z132z148z1 <= 0
x132x148x3 - 1z132z148z3 <= 0
x132x159x1 - 1z132z159z1 <= 0
x132x159x3 - 1z132z159z3 <= 0
x132x57x3 - 1z132z57z3 <= 0
x132x172x1 - 1z132z172z1 <= 0
x132x172x3 - 1z132z172z3 <= 0
x132x175x3 - 1z132z175z3 <= 0
x132x158x3 - 1z132z158z3 <= 0
x132x44x1 - 1z132z44z1 <= 0
x132x125x3 - 2z132z125z3 <= 0
x182x26x3 - 2z182z26z3 <= 0
x182x30x3 - 1z182z30z3 <= 0
x182x37x3 - 1z182z37z3 <= 0
x182x53x1 - 2z182z53z1 <= 0
x182x128x1 - 2z182z128z1 <= 0
x182x148x1 - 1z182z148z1 <= 0
x182x148x3 - 1z182z148z3 <= 0
x182x159x1 - 1z182z159z1 <= 0
x182x159x3 - 1z182z159z3 <= 0
x182x57x3 - 1z182z57z3 <= 0
x182x172x1 - 1z182z172z1 <= 0
x182x172x3 - 1z182z172z3 <= 0
x182x175x3 - 1z182z175z3 <= 0
x182x158x3 - 1z182z158z3 <= 0
x182x44x1 - 1z182z44z1 <= 0
x182x125x3 - 2z182z125z3 <= 0
x26x57x3 - 1z26z57z3 <= 0
x26x172x3 - 1z26z172z3 <= 0
x26x175x3 - 1z26z175z3 <= 0
x26x158x3 - 1z26z158z3 <= 0
x26x125x3 - 2z26z125z3 <= 0
x26x0x3 <= 2
x30x48x2 - 2z30z48z2 <= 0
x30x57x2 - 1z30z57z2 <= 0
x30x57x3 - 1z30z57z3 <= 0
x30x129x2 - 2z30z129z2 <= 0
x30x172x3 - 1z30z172z3 <= 0
x30x124x2 - 2z30z124z2 <= 0
x30x100x2 - 2z30z100z2 <= 0
x30x175x2 - 1z30z175z2 <= 0
x30x175x3 - 1z30z175z3 <= 0
x30x8x2 - 2z30z8z2 <= 0
x30x158x2 - 1z30z158z2 <= 0
x30x158x3 - 1z30z158z3 <= 0
x30x44x2 - 1z30z44z2 <= 0
x30x125x3 - 2z30z125z3 <= 0
x30x0x2 <= 1
x30x0x3 <= 1
x37x48x2 - 2z37z48z2 <= 0
x37x57x2 - 1z37z57z2 <= 0
x37x57x3 - 1z37z57z3 <= 0
x37x129x2 - 2z37z129z2 <= 0
x37x172x3 - 1z37z172z3 <= 0
x37x124x2 - 2z37z124z2 <= 0
x37x100x2 - 2z37z100z2 <= 0
x37x175x2 - 1z37z175z2 <= 0
x37x175x3 - 1z37z175z3 <= 0
x37x8x2 - 2z37z8z2 <= 0
x37x158x2 - 1z37z158z2 <= 0
x37x158x3 - 1z37z158z3 <= 0
x37x44x2 - 1z37z44z2 <= 0
x37x125x3 - 2z37z125z3 <= 0
x37x0x2 <= 1
x37x0x3 <= 1
x53x172x1 - 1z53z172z1 <= 0
x53x44x1 - 1z53z44z1 <= 0
x53x0x1 <= 2
x128x172x1 - 1z128z172z1 <= 0
x128x44x1 - 1z128z44z1 <= 0
x128x0x1 <= 2
x148x57x3 - 1z148z57z3 <= 0
x148x172x1 - 1z148z172z1 <= 0
x148x172x3 - 1z148z172z3 <= 0
x148x175x3 - 1z148z175z3 <= 0
x148x158x3 - 1z148z158z3 <= 0
x148x44x1 - 1z148z44z1 <= 0
x148x125x3 - 2z148z125z3 <= 0
x148x0x1 <= 1
x148x0x3 <= 1
x159x57x3 - 1z159z57z3 <= 0
x159x172x1 - 1z159z172z1 <= 0
x159x172x3 - 1z159z172z3 <= 0
x159x175x3 - 1z159z175z3 <= 0
x159x158x3 - 1z159z158z3 <= 0
x159x44x1 - 1z159z44z1 <= 0
x159x125x3 - 2z159z125z3 <= 0
x159x0x1 <= 1
x159x0x3 <= 1
x120x48x2 - 2z120z48z2 <= 0
x120x57x2 - 1z120z57z2 <= 0
x120x129x2 - 2z120z129z2 <= 0
x120x124x2 - 2z120z124z2 <= 0
x120x100x2 - 2z120z100z2 <= 0
x120x175x2 - 1z120z175z2 <= 0
x120x8x2 - 2z120z8z2 <= 0
x120x158x2 - 1z120z158z2 <= 0
x120x44x2 - 1z120z44z2 <= 0
x120x0x2 <= 2
x48x175x2 - 1z48z175z2 <= 0
x48x8x2 - 2z48z8z2 <= 0
x48x158x2 - 1z48z158z2 <= 0
x48x44x2 - 1z48z44z2 <= 0
x48x0x2 <= 2
x57x172x3 - 1z57z172z3 <= 0
x57x124x2 - 2z57z124z2 <= 0
x57x100x2 - 2z57z100z2 <= 0
x57x175x2 - 1z57z175z2 <= 0
x57x175x3 - 1z57z175z3 <= 0
x57x8x2 - 2z57z8z2 <= 0
x57x158x2 - 1z57z158z2 <= 0
x57x158x3 - 1z57z158z3 <= 0
x57x44x2 - 1z57z44z2 <= 0
x57x125x3 - 2z57z125z3 <= 0
x57x0x2 <= 1
x57x0x3 <= 1
x129x124x2 - 2z129z124z2 <= 0
x129x100x2 - 2z129z100z2 <= 0
x129x175x2 - 1z129z175z2 <= 0
x129x8x2 - 2z129z8z2 <= 0
x129x158x2 - 1z129z158z2 <= 0
x129x44x2 - 1z129z44z2 <= 0
x129x0x2 <= 2
x172x175x3 - 1z172z175z3 <= 0
x172x158x3 - 1z172z158z3 <= 0
x172x44x1 - 1z172z44z1 <= 0
x172x125x3 - 2z172z125z3 <= 0
x172x0x1 <= 1
x172x0x3 <= 1
x124x100x2 - 2z124z100z2 <= 0
x124x175x2 - 1z124z175z2 <= 0
x124x8x2 - 2z124z8z2 <= 0
x124x158x2 - 1z124z158z2 <= 0
x124x44x2 - 1z124z44z2 <= 0
x124x0x2 <= 2
x100x175x2 - 1z100z175z2 <= 0
x100x8x2 - 2z100z8z2 <= 0
x100x158x2 - 1z100z158z2 <= 0
x100x44x2 - 1z100z44z2 <= 0
x100x0x2 <= 2
x175x44x2 - 1z175z44z2 <= 0
x175x125x3 - 2z175z125z3 <= 0
x175x0x2 <= 1
x175x0x3 <= 1
x8x44x2 - 1z8z44z2 <= 0
x8x0x2 <= 2
x158x125x3 - 2z158z125z3 <= 0
x158x0x2 <= 1
x158x0x3 <= 1
x44x0x1 <= 1
x44x0x2 <= 1
x125x0x3 <= 2

Bounds
s122 = 5.977352
s95 = 5.670000
s14 = 3.963780
s2 = 4.817370
s177 = 4.814950
s4 = 4.770130
s23 = 4.856670
s34 = 4.785510
s19 = 4.866670
s146 = 4.916570
s86 = 5.055360
s132 = 5.010810
s182 = 4.998100
6.000000 <= s26 <= 6.540000
6.000000 <= s30 <= 6.940000
6.000000 <= s37 <= 6.830000
6.000000 <= s53 <= 6.540000
6.000000 <= s128 <= 6.790000
6.000000 <= s148 <= 6.910000
6.000000 <= s159 <= 6.660000
6.040000 <= s120 <= 7.040000
6.270000 <= s48 <= 7.270000
6.330000 <= s57 <= 7.330000
6.330000 <= s129 <= 7.330000
6.380000 <= s172 <= 7.380000
6.390000 <= s124 <= 7.390000
6.400000 <= s100 <= 7.400000
6.450000 <= s175 <= 7.450000
6.470000 <= s8 <= 7.470000
6.480000 <= s158 <= 7.480000
6.530000 <= s44 <= 7.530000
6.790000 <= s125 <= 7.790000

General
x122x158x3 x122x44x1 x122x125x3 
x95x57x3 x95x172x1 x95x172x3 x95x175x3 x95x158x3 x95x44x1 x95x125x3 
x14x30x2 x14x37x2 x14x120x2 x14x48x2 x14x57x2 x14x129x2 x14x124x2 x14x100x2 x14x175x2 x14x8x2 x14x158x2 x14x44x2 
x2x26x3 x2x30x2 x2x30x3 x2x37x2 x2x37x3 x2x148x3 x2x159x3 x2x120x2 x2x48x2 x2x57x2 x2x57x3 x2x129x2 x2x172x3 x2x124x2 x2x100x2 x2x175x2 x2x175x3 x2x8x2 x2x158x2 x2x158x3 x2x44x2 x2x125x3 
x177x30x2 x177x37x2 x177x120x2 x177x48x2 x177x57x2 x177x129x2 x177x124x2 x177x100x2 x177x175x2 x177x8x2 x177x158x2 x177x44x2 
x4x30x2 x4x37x2 x4x120x2 x4x48x2 x4x57x2 x4x129x2 x4x124x2 x4x100x2 x4x175x2 x4x8x2 x4x158x2 x4x44x2 
x23x30x2 x23x37x2 x23x53x1 x23x128x1 x23x148x1 x23x159x1 x23x120x2 x23x48x2 x23x57x2 x23x129x2 x23x172x1 x23x124x2 x23x100x2 x23x175x2 x23x8x2 x23x158x2 x23x44x1 x23x44x2 
x34x26x3 x34x30x3 x34x37x3 x34x53x1 x34x128x1 x34x148x1 x34x148x3 x34x159x1 x34x159x3 x34x57x3 x34x172x1 x34x172x3 x34x175x3 x34x158x3 x34x44x1 x34x125x3 
x19x26x3 x19x30x3 x19x37x3 x19x148x3 x19x159x3 x19x57x3 x19x172x3 x19x175x3 x19x158x3 x19x125x3 
x146x30x2 x146x37x2 x146x128x1 x146x148x1 x146x159x1 x146x120x2 x146x48x2 x146x57x2 x146x129x2 x146x172x1 x146x124x2 x146x100x2 x146x175x2 x146x8x2 x146x158x2 x146x44x1 x146x44x2 
x86x30x2 x86x37x2 x86x128x1 x86x148x1 x86x159x1 x86x120x2 x86x48x2 x86x57x2 x86x129x2 x86x172x1 x86x124x2 x86x100x2 x86x175x2 x86x8x2 x86x158x2 x86x44x1 x86x44x2 
x132x26x3 x132x30x3 x132x37x3 x132x53x1 x132x128x1 x132x148x1 x132x148x3 x132x159x1 x132x159x3 x132x57x3 x132x172x1 x132x172x3 x132x175x3 x132x158x3 x132x44x1 x132x125x3 
x182x26x3 x182x30x3 x182x37x3 x182x53x1 x182x128x1 x182x148x1 x182x148x3 x182x159x1 x182x159x3 x182x57x3 x182x172x1 x182x172x3 x182x175x3 x182x158x3 x182x44x1 x182x125x3 
x26x57x3 x26x172x3 x26x175x3 x26x158x3 x26x125x3 x26x0x3 
x30x48x2 x30x57x2 x30x57x3 x30x129x2 x30x172x3 x30x124x2 x30x100x2 x30x175x2 x30x175x3 x30x8x2 x30x158x2 x30x158x3 x30x44x2 x30x125x3 x30x0x2 x30x0x3 
x37x48x2 x37x57x2 x37x57x3 x37x129x2 x37x172x3 x37x124x2 x37x100x2 x37x175x2 x37x175x3 x37x8x2 x37x158x2 x37x158x3 x37x44x2 x37x125x3 x37x0x2 x37x0x3 
x53x172x1 x53x44x1 x53x0x1 
x128x172x1 x128x44x1 x128x0x1 
x148x57x3 x148x172x1 x148x172x3 x148x175x3 x148x158x3 x148x44x1 x148x125x3 x148x0x1 x148x0x3 
x159x57x3 x159x172x1 x159x172x3 x159x175x3 x159x158x3 x159x44x1 x159x125x3 x159x0x1 x159x0x3 
x120x48x2 x120x57x2 x120x129x2 x120x124x2 x120x100x2 x120x175x2 x120x8x2 x120x158x2 x120x44x2 x120x0x2 
x48x175x2 x48x8x2 x48x158x2 x48x44x2 x48x0x2 
x57x172x3 x57x124x2 x57x100x2 x57x175x2 x57x175x3 x57x8x2 x57x158x2 x57x158x3 x57x44x2 x57x125x3 x57x0x2 x57x0x3 
x129x124x2 x129x100x2 x129x175x2 x129x8x2 x129x158x2 x129x44x2 x129x0x2 
x172x175x3 x172x158x3 x172x44x1 x172x125x3 x172x0x1 x172x0x3 
x124x100x2 x124x175x2 x124x8x2 x124x158x2 x124x44x2 x124x0x2 
x100x175x2 x100x8x2 x100x158x2 x100x44x2 x100x0x2 
x175x44x2 x175x125x3 x175x0x2 x175x0x3 
x8x44x2 x8x0x2 
x158x125x3 x158x0x2 x158x0x3 
x44x0x1 x44x0x2 
x125x0x3 

Binaries
y26 y30 y37 y53 y128 y148 y159 y120 y48 y57 y129 y172 y124 y100 y175 y8 y158 y44 y125 
z122z158z3 z122z44z1 z122z125z3 
z95z57z3 z95z172z1 z95z172z3 z95z175z3 z95z158z3 z95z44z1 z95z125z3 
z14z30z2 z14z37z2 z14z120z2 z14z48z2 z14z57z2 z14z129z2 z14z124z2 z14z100z2 z14z175z2 z14z8z2 z14z158z2 z14z44z2 
z2z26z3 z2z30z2 z2z30z3 z2z37z2 z2z37z3 z2z148z3 z2z159z3 z2z120z2 z2z48z2 z2z57z2 z2z57z3 z2z129z2 z2z172z3 z2z124z2 z2z100z2 z2z175z2 z2z175z3 z2z8z2 z2z158z2 z2z158z3 z2z44z2 z2z125z3 
z177z30z2 z177z37z2 z177z120z2 z177z48z2 z177z57z2 z177z129z2 z177z124z2 z177z100z2 z177z175z2 z177z8z2 z177z158z2 z177z44z2 
z4z30z2 z4z37z2 z4z120z2 z4z48z2 z4z57z2 z4z129z2 z4z124z2 z4z100z2 z4z175z2 z4z8z2 z4z158z2 z4z44z2 
z23z30z2 z23z37z2 z23z53z1 z23z128z1 z23z148z1 z23z159z1 z23z120z2 z23z48z2 z23z57z2 z23z129z2 z23z172z1 z23z124z2 z23z100z2 z23z175z2 z23z8z2 z23z158z2 z23z44z1 z23z44z2 
z34z26z3 z34z30z3 z34z37z3 z34z53z1 z34z128z1 z34z148z1 z34z148z3 z34z159z1 z34z159z3 z34z57z3 z34z172z1 z34z172z3 z34z175z3 z34z158z3 z34z44z1 z34z125z3 
z19z26z3 z19z30z3 z19z37z3 z19z148z3 z19z159z3 z19z57z3 z19z172z3 z19z175z3 z19z158z3 z19z125z3 
z146z30z2 z146z37z2 z146z128z1 z146z148z1 z146z159z1 z146z120z2 z146z48z2 z146z57z2 z146z129z2 z146z172z1 z146z124z2 z146z100z2 z146z175z2 z146z8z2 z146z158z2 z146z44z1 z146z44z2 
z86z30z2 z86z37z2 z86z128z1 z86z148z1 z86z159z1 z86z120z2 z86z48z2 z86z57z2 z86z129z2 z86z172z1 z86z124z2 z86z100z2 z86z175z2 z86z8z2 z86z158z2 z86z44z1 z86z44z2 
z132z26z3 z132z30z3 z132z37z3 z132z53z1 z132z128z1 z132z148z1 z132z148z3 z132z159z1 z132z159z3 z132z57z3 z132z172z1 z132z172z3 z132z175z3 z132z158z3 z132z44z1 z132z125z3 
z182z26z3 z182z30z3 z182z37z3 z182z53z1 z182z128z1 z182z148z1 z182z148z3 z182z159z1 z182z159z3 z182z57z3 z182z172z1 z182z172z3 z182z175z3 z182z158z3 z182z44z1 z182z125z3 
z26z57z3 z26z172z3 z26z175z3 z26z158z3 z26z125z3 
z30z48z2 z30z57z2 z30z57z3 z30z129z2 z30z172z3 z30z124z2 z30z100z2 z30z175z2 z30z175z3 z30z8z2 z30z158z2 z30z158z3 z30z44z2 z30z125z3 
z37z48z2 z37z57z2 z37z57z3 z37z129z2 z37z172z3 z37z124z2 z37z100z2 z37z175z2 z37z175z3 z37z8z2 z37z158z2 z37z158z3 z37z44z2 z37z125z3 
z53z172z1 z53z44z1 
z128z172z1 z128z44z1 
z148z57z3 z148z172z1 z148z172z3 z148z175z3 z148z158z3 z148z44z1 z148z125z3 
z159z57z3 z159z172z1 z159z172z3 z159z175z3 z159z158z3 z159z44z1 z159z125z3 
z120z48z2 z120z57z2 z120z129z2 z120z124z2 z120z100z2 z120z175z2 z120z8z2 z120z158z2 z120z44z2 
z48z175z2 z48z8z2 z48z158z2 z48z44z2 
z57z172z3 z57z124z2 z57z100z2 z57z175z2 z57z175z3 z57z8z2 z57z158z2 z57z158z3 z57z44z2 z57z125z3 
z129z124z2 z129z100z2 z129z175z2 z129z8z2 z129z158z2 z129z44z2 
z172z175z3 z172z158z3 z172z44z1 z172z125z3 
z124z100z2 z124z175z2 z124z8z2 z124z158z2 z124z44z2 
z100z175z2 z100z8z2 z100z158z2 z100z44z2 
z175z44z2 z175z125z3 
z8z44z2 
z158z125z3 



End